
Gurobi 11.0.1 (win64) logging started Tue May 14 18:20:05 2024

Set parameter LogFile to value "output/solver_log6.txt"
Gurobi Optimizer version 11.0.1 build v11.0.1rc0 (win64 - Windows 11.0 (22631.2))

CPU model: 11th Gen Intel(R) Core(TM) i7-1165G7 @ 2.80GHz, instruction set [SSE2|AVX|AVX2|AVX512]
Thread count: 4 physical cores, 8 logical processors, using up to 8 threads

Optimize a model with 1076 rows, 219 columns and 20275 nonzeros
Model fingerprint: 0x1285787e
Variable types: 88 continuous, 131 integer (131 binary)
Coefficient statistics:
  Matrix range     [4e-01, 1e+05]
  Objective range  [1e+00, 1e+02]
  Bounds range     [1e+00, 1e+00]
  RHS range        [1e-02, 1e+05]

User MIP start produced solution with objective 38085.5 (0.00s)
User MIP start produced solution with objective 39225.1 (0.00s)
User MIP start produced solution with objective 39225.1 (0.00s)
Loaded user MIP start with objective 39225.1

Presolve removed 83 rows and 86 columns
Presolve time: 0.01s
Presolved: 993 rows, 133 columns, 19539 nonzeros
Variable types: 82 continuous, 51 integer (50 binary)

Root relaxation: objective 4.052423e+04, 232 iterations, 0.01 seconds (0.03 work units)

    Nodes    |    Current Node    |     Objective Bounds      |     Work
 Expl Unexpl |  Obj  Depth IntInf | Incumbent    BestBd   Gap | It/Node Time

     0     0 40524.2333    0    3 39225.0551 40524.2333  3.31%     -    0s
     0     0 39644.7028    0    4 39225.0551 39644.7028  1.07%     -    0s
     0     0          -    0      39225.0551 39226.5406  0.00%     -    0s

Cutting planes:
  MIR: 1
  RLT: 2

Explored 1 nodes (424 simplex iterations) in 0.13 seconds (0.17 work units)
Thread count was 8 (of 8 available processors)

Solution count 3: 39225.1 39225.1 38085.5 

Optimal solution found (tolerance 1.00e-04)
Best objective 3.922505511593e+04, best bound 3.922654059614e+04, gap 0.0038%
